1024748
56,75,10,142,213,196,163,153,64,173,199,28,192,194,205,217,208,112,72,159,50,121,125,69,135,180,220,92,171,167,203,114,148,189,98,201,104,52,99,215,65,23,40,221,131,79,51,84,45,110,12,43,4,155,116,35,0,161,70,162,15,184,188,59,2,137,7,13,164,96,219,90,95,165,183,100,8,67,211,229,81,179,120,127,140,55,17,53,174,91,218,105,76,157,1,24,122,123,118,41,97,198,30,42,66,48,117,73,156,82,134,139,38,206,146,126,177,190,9,113,197,200,109,193,29,63,144,143,115,160,49,150,27,107,93,34,86,77,54,61,129,168,39,80,101,228,132,154,111,26,214,210,46,47,224,16,175,222,5,202,102,186,145,11,87,227,216,20,3,141,169,149,185,170,89,108,152,128,32,223,37,103,44,212,58,57,138,124,133,18,226,119,14,136,25,21,88,106,204,74,191,36,33,178,195,19,182,209,6,62,71,31,207,158,22,68,225,176,151,85,172,147,60,181,130,187,166,94,78,83,56